14.2 13.1 0
12.8 8.5 0.1
18.4 3.4 0.4
15.4 16.6 1.2
18.9 15.2 1.5
15.5 11.6 0.8
3.9 10.6 1.3
10.6 7.6 1.7
8.6 8.4 0.6
12.5 2.1 1.2
13.8 5.2 0.4
6.7 16.9 0.9
14.8 2.6 1.3
1.8 8.7 1.3
17.1 11 1.9
7.4 1 1.7
0.2 2.8 1.1
11.9 19.8 1.5
13.2 15.1 1.6
6.4 5.6 1.7
9.6 14.8 1.5

0 5000
0 5000
0 5000
0 5000
0 5000
0 5000
0 5000
0 5000
0 5000
0 5000
0 5000
0 5000
0 5000
0 5000
0 5000
0 5000
0 5000
0 5000
0 5000
0 5000
0 5000

8 8 8 8 8

50

10

5